n_res = 4;
rc = [ 0, 0, 0, 0 ];
n_tasks = 30;
d = [ 2, 4, 3, 9, 6, 6, 3, 5, 10, 6, 4, 4, 1, 2, 9, 5, 3, 8, 8, 7, 9, 4, 5, 2, 1, 6, 9, 2, 2, 6 ];
rr = [| 0, 0, 0, 0, 0, 0, 0, 0, 0, 0, 0, 0, 0, 0, 0, 0, 0, 0, 0, 0, 0, 0, 0, 0, 0, 0, 0, 0, 0, 0
      | 0, 0, 0, 0, 0, 0, 0, 0, 0, 0, 0, 0, 0, 0, 0, 0, 0, 0, 0, 0, 0, 0, 0, 0, 0, 0, 0, 0, 0, 0
      | 0, 0, 0, 0, 0, 0, 0, 0, 0, 0, 0, 0, 0, 0, 0, 0, 0, 0, 0, 0, 0, 0, 0, 0, 0, 0, 0, 0, 0, 0
      | 0, 0, 0, 0, 0, 0, 0, 0, 0, 0, 0, 0, 0, 0, 0, 0, 0, 0, 0, 0, 0, 0, 0, 0, 0, 0, 0, 0, 0, 0 |];
suc = [ { 4, 6, 7 },
       { 13, 14, 20 },
       { 12, 14, 24 },
       { 5, 10, 16 },
       { 11, 12, 19 },
       { 8, 10, 14 },
       { 8, 9, 16 },
       { 21, 24 },
       { 15 },
       { 11, 22, 24 },
       { 17, 27 },
       { 15, 18 },
       { 17, 19, 21 },
       { 18, 19, 21 },
       { 20, 22, 30 },
       { 18, 20, 28 },
       { 23, 26 },
       { 25, 26, 29 },
       { 22, 23 },
       { 29 },
       { 23, 26 },
       { 27 },
       { 25, 28 },
       { 25, 27, 28 },
       { 30 },
       { 30 },
       { 29 },
       {  },
       {  },
       {  } ];
